;; Mutation-Based Equivalence Benchmark
;; Source:     AutomatArk / instance09137.smt2
;; Mutations:  range_shrink_lo
;; Status:     sat
;;
;; Original regex vs mutated regex
;; Equivalence check: unsat ⟺ L(R1) = L(R2)

(set-info :smt-lib-version 2.6)
(set-info :category "mutation")
(set-info :status sat)
(set-logic QF_S)

(declare-const x String)

;; R1: original
;; R2: mutated (range_shrink_lo)
(assert
  (str.in_re x
    (re.union (re.inter (re.++ (re.opt (re.union (re.++ ((_ re.loop 4 4) (re.range "0" "9")) (re.union (re.++ (str.to_re "0") (re.union (str.to_re "1") (str.to_re "3") (str.to_re "5") (str.to_re "7") (str.to_re "8"))) (str.to_re "10") (str.to_re "12")) (re.union (re.++ (str.to_re "0") (re.range "1" "9")) (re.++ (re.union (str.to_re "1") (str.to_re "2")) (re.range "0" "9")) (re.++ (str.to_re "3") (re.union (str.to_re "0") (str.to_re "1"))))) (re.++ ((_ re.loop 4 4) (re.range "0" "9")) (re.union (re.++ (str.to_re "0") (re.union (str.to_re "4") (str.to_re "6") (str.to_re "9"))) (str.to_re "11")) (re.union (re.++ (str.to_re "0") (re.range "1" "9")) (re.++ (re.union (str.to_re "1") (str.to_re "2")) (re.range "0" "9")) (str.to_re "30"))) (re.++ ((_ re.loop 4 4) (re.range "0" "9")) (str.to_re "02") (re.union (re.++ (str.to_re "0") (re.range "1" "9")) (re.++ (str.to_re "1") (re.range "0" "9")) (re.++ (str.to_re "2") (re.range "0" "8")))) (re.++ (str.to_re "0229") (re.union (str.to_re "0") (str.to_re "2") (str.to_re "4") (str.to_re "6") (str.to_re "8")) (re.union (str.to_re "0") (str.to_re "4") (str.to_re "8")) (str.to_re "00")) (re.++ (str.to_re " 0229") (re.union (str.to_re "1") (str.to_re "3") (str.to_re "5") (str.to_re "7") (str.to_re "9")) (re.union (str.to_re "2") (str.to_re "6")) (str.to_re "00")) (re.++ (str.to_re "0229") (re.range "0" "9") (re.range "0" "9") (str.to_re "0") (re.union (str.to_re "4") (str.to_re "8"))) (re.++ (str.to_re "0229") (re.range "0" "9") (re.range "0" "9") (re.union (str.to_re "2") (str.to_re "4") (str.to_re "6") (str.to_re "8")) (re.union (str.to_re "0") (str.to_re "4") (str.to_re "8"))) (re.++ (str.to_re "0229") (re.range "0" "9") (re.range "0" "9") (re.union (str.to_re "1") (str.to_re "3") (str.to_re "5") (str.to_re "7") (str.to_re "9")) (re.union (str.to_re "2") (str.to_re "6"))) (str.to_re "00000000") (str.to_re "88888888") (str.to_re "99999999"))) (str.to_re "\u{a}")) (re.comp (re.++ (re.opt (re.union (re.++ ((_ re.loop 4 4) (re.range "0" "9")) (re.union (re.++ (str.to_re "0") (re.union (str.to_re "1") (str.to_re "3") (str.to_re "5") (str.to_re "7") (str.to_re "8"))) (str.to_re "10") (str.to_re "12")) (re.union (re.++ (str.to_re "0") (re.range "1" "9")) (re.++ (re.union (str.to_re "1") (str.to_re "2")) (re.range "0" "9")) (re.++ (str.to_re "3") (re.union (str.to_re "0") (str.to_re "1"))))) (re.++ ((_ re.loop 4 4) (re.range "1" "9")) (re.union (re.++ (str.to_re "0") (re.union (str.to_re "4") (str.to_re "6") (str.to_re "9"))) (str.to_re "11")) (re.union (re.++ (str.to_re "0") (re.range "1" "9")) (re.++ (re.union (str.to_re "1") (str.to_re "2")) (re.range "0" "9")) (str.to_re "30"))) (re.++ ((_ re.loop 4 4) (re.range "0" "9")) (str.to_re "02") (re.union (re.++ (str.to_re "0") (re.range "1" "9")) (re.++ (str.to_re "1") (re.range "0" "9")) (re.++ (str.to_re "2") (re.range "0" "8")))) (re.++ (str.to_re "0229") (re.union (str.to_re "0") (str.to_re "2") (str.to_re "4") (str.to_re "6") (str.to_re "8")) (re.union (str.to_re "0") (str.to_re "4") (str.to_re "8")) (str.to_re "00")) (re.++ (str.to_re " 0229") (re.union (str.to_re "1") (str.to_re "3") (str.to_re "5") (str.to_re "7") (str.to_re "9")) (re.union (str.to_re "2") (str.to_re "6")) (str.to_re "00")) (re.++ (str.to_re "0229") (re.range "0" "9") (re.range "0" "9") (str.to_re "0") (re.union (str.to_re "4") (str.to_re "8"))) (re.++ (str.to_re "0229") (re.range "0" "9") (re.range "0" "9") (re.union (str.to_re "2") (str.to_re "4") (str.to_re "6") (str.to_re "8")) (re.union (str.to_re "0") (str.to_re "4") (str.to_re "8"))) (re.++ (str.to_re "0229") (re.range "0" "9") (re.range "0" "9") (re.union (str.to_re "1") (str.to_re "3") (str.to_re "5") (str.to_re "7") (str.to_re "9")) (re.union (str.to_re "2") (str.to_re "6"))) (str.to_re "00000000") (str.to_re "88888888") (str.to_re "99999999"))) (str.to_re "\u{a}")))) (re.inter (re.comp (re.++ (re.opt (re.union (re.++ ((_ re.loop 4 4) (re.range "0" "9")) (re.union (re.++ (str.to_re "0") (re.union (str.to_re "1") (str.to_re "3") (str.to_re "5") (str.to_re "7") (str.to_re "8"))) (str.to_re "10") (str.to_re "12")) (re.union (re.++ (str.to_re "0") (re.range "1" "9")) (re.++ (re.union (str.to_re "1") (str.to_re "2")) (re.range "0" "9")) (re.++ (str.to_re "3") (re.union (str.to_re "0") (str.to_re "1"))))) (re.++ ((_ re.loop 4 4) (re.range "0" "9")) (re.union (re.++ (str.to_re "0") (re.union (str.to_re "4") (str.to_re "6") (str.to_re "9"))) (str.to_re "11")) (re.union (re.++ (str.to_re "0") (re.range "1" "9")) (re.++ (re.union (str.to_re "1") (str.to_re "2")) (re.range "0" "9")) (str.to_re "30"))) (re.++ ((_ re.loop 4 4) (re.range "0" "9")) (str.to_re "02") (re.union (re.++ (str.to_re "0") (re.range "1" "9")) (re.++ (str.to_re "1") (re.range "0" "9")) (re.++ (str.to_re "2") (re.range "0" "8")))) (re.++ (str.to_re "0229") (re.union (str.to_re "0") (str.to_re "2") (str.to_re "4") (str.to_re "6") (str.to_re "8")) (re.union (str.to_re "0") (str.to_re "4") (str.to_re "8")) (str.to_re "00")) (re.++ (str.to_re " 0229") (re.union (str.to_re "1") (str.to_re "3") (str.to_re "5") (str.to_re "7") (str.to_re "9")) (re.union (str.to_re "2") (str.to_re "6")) (str.to_re "00")) (re.++ (str.to_re "0229") (re.range "0" "9") (re.range "0" "9") (str.to_re "0") (re.union (str.to_re "4") (str.to_re "8"))) (re.++ (str.to_re "0229") (re.range "0" "9") (re.range "0" "9") (re.union (str.to_re "2") (str.to_re "4") (str.to_re "6") (str.to_re "8")) (re.union (str.to_re "0") (str.to_re "4") (str.to_re "8"))) (re.++ (str.to_re "0229") (re.range "0" "9") (re.range "0" "9") (re.union (str.to_re "1") (str.to_re "3") (str.to_re "5") (str.to_re "7") (str.to_re "9")) (re.union (str.to_re "2") (str.to_re "6"))) (str.to_re "00000000") (str.to_re "88888888") (str.to_re "99999999"))) (str.to_re "\u{a}"))) (re.++ (re.opt (re.union (re.++ ((_ re.loop 4 4) (re.range "0" "9")) (re.union (re.++ (str.to_re "0") (re.union (str.to_re "1") (str.to_re "3") (str.to_re "5") (str.to_re "7") (str.to_re "8"))) (str.to_re "10") (str.to_re "12")) (re.union (re.++ (str.to_re "0") (re.range "1" "9")) (re.++ (re.union (str.to_re "1") (str.to_re "2")) (re.range "0" "9")) (re.++ (str.to_re "3") (re.union (str.to_re "0") (str.to_re "1"))))) (re.++ ((_ re.loop 4 4) (re.range "1" "9")) (re.union (re.++ (str.to_re "0") (re.union (str.to_re "4") (str.to_re "6") (str.to_re "9"))) (str.to_re "11")) (re.union (re.++ (str.to_re "0") (re.range "1" "9")) (re.++ (re.union (str.to_re "1") (str.to_re "2")) (re.range "0" "9")) (str.to_re "30"))) (re.++ ((_ re.loop 4 4) (re.range "0" "9")) (str.to_re "02") (re.union (re.++ (str.to_re "0") (re.range "1" "9")) (re.++ (str.to_re "1") (re.range "0" "9")) (re.++ (str.to_re "2") (re.range "0" "8")))) (re.++ (str.to_re "0229") (re.union (str.to_re "0") (str.to_re "2") (str.to_re "4") (str.to_re "6") (str.to_re "8")) (re.union (str.to_re "0") (str.to_re "4") (str.to_re "8")) (str.to_re "00")) (re.++ (str.to_re " 0229") (re.union (str.to_re "1") (str.to_re "3") (str.to_re "5") (str.to_re "7") (str.to_re "9")) (re.union (str.to_re "2") (str.to_re "6")) (str.to_re "00")) (re.++ (str.to_re "0229") (re.range "0" "9") (re.range "0" "9") (str.to_re "0") (re.union (str.to_re "4") (str.to_re "8"))) (re.++ (str.to_re "0229") (re.range "0" "9") (re.range "0" "9") (re.union (str.to_re "2") (str.to_re "4") (str.to_re "6") (str.to_re "8")) (re.union (str.to_re "0") (str.to_re "4") (str.to_re "8"))) (re.++ (str.to_re "0229") (re.range "0" "9") (re.range "0" "9") (re.union (str.to_re "1") (str.to_re "3") (str.to_re "5") (str.to_re "7") (str.to_re "9")) (re.union (str.to_re "2") (str.to_re "6"))) (str.to_re "00000000") (str.to_re "88888888") (str.to_re "99999999"))) (str.to_re "\u{a}"))))))

(check-sat)
(exit)
